p cnf 1338
-23 -415
-24 -418
-25 -421
-26 -424
-27 -427
-28 -430
-29 -433
-30 -436
-31 -439
-32 -442
-33 -445
-34 -448
-35 -451
-36 -454
-37 -457
-38 -460
-39 -463
-40 -466
-41 -469
-42 -472
-43 -475
-44 -478
-45 479
-46 480
-47 481
-48 482
-49 483
-50 484
-51 485
-52 -24
-52 -25
24 25 52
-53 -26
-53 -27
26 27 53
-54 -28
-54 -29
28 29 54
-55 -30
-55 -31
30 31 55
-56 -32
-56 -33
32 33 56
-57 -34
-57 -35
34 35 57
-58 -36
-58 -37
36 37 58
-59 -38
-59 -39
38 39 59
-60 -40
-60 -41
40 41 60
-61 -42
-61 -43
42 43 61
-62 -44
-62 -45
44 45 62
-63 -46
-63 -47
46 47 63
-64 -48
-64 -49
48 49 64
-65 -50
-65 -51
50 51 65
-66 52
-66 53
-52 -53 66
-67 54
-67 55
-54 -55 67
-68 56
-68 57
-56 -57 68
-69 58
-69 59
-58 -59 69
-70 60
-70 61
-60 -61 70
-71 62
-71 63
-62 -63 71
-72 64
-72 65
-64 -65 72
-73 66
-73 67
-66 -67 73
-74 68
-74 69
-68 -69 74
-75 70
-75 71
-70 -71 75
-76 73
-76 74
-73 -74 76
-77 72
-77 75
-72 -75 77
-78 76
-78 77
-76 -77 78
-79 -23
-79 24
23 -24 79
-80 23
-80 -24
-23 24 80
-81 -79
-81 -80
79 80 81
-82 23
-82 24
-23 -24 82
-83 -23
-83 -81
23 81 83
-84 23
-84 81
-23 -81 84
-85 -83
-85 -84
83 84 85
-86 23
-86 -81
-23 81 86
-87 -82
-87 -86
82 86 87
-88 -24
-88 25
24 -25 88
-89 24
-89 -25
-24 25 89
-90 -88
-90 -89
88 89 90
-91 24
-91 25
-24 -25 91
-92 87
-92 -90
-87 90 92
-93 -87
-93 90
87 -90 93
-94 -92
-94 -93
92 93 94
-95 -87
-95 -90
87 90 95
-96 -91
-96 -95
91 95 96
-97 -25
-97 26
25 -26 97
-98 25
-98 -26
-25 26 98
-99 -97
-99 -98
97 98 99
-100 25
-100 26
-25 -26 100
-101 96
-101 -99
-96 99 101
-102 -96
-102 99
96 -99 102
-103 -101
-103 -102
101 102 103
-104 -96
-104 -99
96 99 104
-105 -100
-105 -104
100 104 105
-106 -26
-106 27
26 -27 106
-107 26
-107 -27
-26 27 107
-108 -106
-108 -107
106 107 108
-109 26
-109 27
-26 -27 109
-110 105
-110 -108
-105 108 110
-111 -105
-111 108
105 -108 111
-112 -110
-112 -111
110 111 112
-113 -105
-113 -108
105 108 113
-114 -109
-114 -113
109 113 114
-115 -27
-115 28
27 -28 115
-116 27
-116 -28
-27 28 116
-117 -115
-117 -116
115 116 117
-118 27
-118 28
-27 -28 118
-119 114
-119 -117
-114 117 119
-120 -114
-120 117
114 -117 120
-121 -119
-121 -120
119 120 121
-122 -114
-122 -117
114 117 122
-123 -118
-123 -122
118 122 123
-124 -28
-124 29
28 -29 124
-125 28
-125 -29
-28 29 125
-126 -124
-126 -125
124 125 126
-127 28
-127 29
-28 -29 127
-128 123
-128 -126
-123 126 128
-129 -123
-129 126
123 -126 129
-130 -128
-130 -129
128 129 130
-131 -123
-131 -126
123 126 131
-132 -127
-132 -131
127 131 132
-133 -29
-133 30
29 -30 133
-134 29
-134 -30
-29 30 134
-135 -133
-135 -134
133 134 135
-136 29
-136 30
-29 -30 136
-137 132
-137 -135
-132 135 137
-138 -132
-138 135
132 -135 138
-139 -137
-139 -138
137 138 139
-140 -132
-140 -135
132 135 140
-141 -136
-141 -140
136 140 141
-142 -30
-142 31
30 -31 142
-143 30
-143 -31
-30 31 143
-144 -142
-144 -143
142 143 144
-145 30
-145 31
-30 -31 145
-146 141
-146 -144
-141 144 146
-147 -141
-147 144
141 -144 147
-148 -146
-148 -147
146 147 148
-149 -141
-149 -144
141 144 149
-150 -145
-150 -149
145 149 150
-151 -31
-151 32
31 -32 151
-152 31
-152 -32
-31 32 152
-153 -151
-153 -152
151 152 153
-154 31
-154 32
-31 -32 154
-155 150
-155 -153
-150 153 155
-156 -150
-156 153
150 -153 156
-157 -155
-157 -156
155 156 157
-158 -150
-158 -153
150 153 158
-159 -154
-159 -158
154 158 159
-160 -32
-160 33
32 -33 160
-161 32
-161 -33
-32 33 161
-162 -160
-162 -161
160 161 162
-163 32
-163 33
-32 -33 163
-164 159
-164 -162
-159 162 164
-165 -159
-165 162
159 -162 165
-166 -164
-166 -165
164 165 166
-167 -159
-167 -162
159 162 167
-168 -163
-168 -167
163 167 168
-169 -33
-169 34
33 -34 169
-170 33
-170 -34
-33 34 170
-171 -169
-171 -170
169 170 171
-172 33
-172 34
-33 -34 172
-173 168
-173 -171
-168 171 173
-174 -168
-174 171
168 -171 174
-175 -173
-175 -174
173 174 175
-176 -168
-176 -171
168 171 176
-177 -172
-177 -176
172 176 177
-178 -34
-178 35
34 -35 178
-179 34
-179 -35
-34 35 179
-180 -178
-180 -179
178 179 180
-181 34
-181 35
-34 -35 181
-182 177
-182 -180
-177 180 182
-183 -177
-183 180
177 -180 183
-184 -182
-184 -183
182 183 184
-185 -177
-185 -180
177 180 185
-186 -181
-186 -185
181 185 186
-187 -35
-187 36
35 -36 187
-188 35
-188 -36
-35 36 188
-189 -187
-189 -188
187 188 189
-190 35
-190 36
-35 -36 190
-191 186
-191 -189
-186 189 191
-192 -186
-192 189
186 -189 192
-193 -191
-193 -192
191 192 193
-194 -186
-194 -189
186 189 194
-195 -190
-195 -194
190 194 195
-196 -36
-196 37
36 -37 196
-197 36
-197 -37
-36 37 197
-198 -196
-198 -197
196 197 198
-199 36
-199 37
-36 -37 199
-200 195
-200 -198
-195 198 200
-201 -195
-201 198
195 -198 201
-202 -200
-202 -201
200 201 202
-203 -195
-203 -198
195 198 203
-204 -199
-204 -203
199 203 204
-205 -37
-205 38
37 -38 205
-206 37
-206 -38
-37 38 206
-207 -205
-207 -206
205 206 207
-208 37
-208 38
-37 -38 208
-209 204
-209 -207
-204 207 209
-210 -204
-210 207
204 -207 210
-211 -209
-211 -210
209 210 211
-212 -204
-212 -207
204 207 212
-213 -208
-213 -212
208 212 213
-214 -38
-214 39
38 -39 214
-215 38
-215 -39
-38 39 215
-216 -214
-216 -215
214 215 216
-217 38
-217 39
-38 -39 217
-218 213
-218 -216
-213 216 218
-219 -213
-219 216
213 -216 219
-220 -218
-220 -219
218 219 220
-221 -213
-221 -216
213 216 221
-222 -217
-222 -221
217 221 222
-223 -39
-223 40
39 -40 223
-224 39
-224 -40
-39 40 224
-225 -223
-225 -224
223 224 225
-226 39
-226 40
-39 -40 226
-227 222
-227 -225
-222 225 227
-228 -222
-228 225
222 -225 228
-229 -227
-229 -228
227 228 229
-230 -222
-230 -225
222 225 230
-231 -226
-231 -230
226 230 231
-232 -40
-232 41
40 -41 232
-233 40
-233 -41
-40 41 233
-234 -232
-234 -233
232 233 234
-235 40
-235 41
-40 -41 235
-236 231
-236 -234
-231 234 236
-237 -231
-237 234
231 -234 237
-238 -236
-238 -237
236 237 238
-239 -231
-239 -234
231 234 239
-240 -235
-240 -239
235 239 240
-241 -41
-241 42
41 -42 241
-242 41
-242 -42
-41 42 242
-243 -241
-243 -242
241 242 243
-244 41
-244 42
-41 -42 244
-245 240
-245 -243
-240 243 245
-246 -240
-246 243
240 -243 246
-247 -245
-247 -246
245 246 247
-248 -240
-248 -243
240 243 248
-249 -244
-249 -248
244 248 249
-250 -42
-250 43
42 -43 250
-251 42
-251 -43
-42 43 251
-252 -250
-252 -251
250 251 252
-253 42
-253 43
-42 -43 253
-254 249
-254 -252
-249 252 254
-255 -249
-255 252
249 -252 255
-256 -254
-256 -255
254 255 256
-257 -249
-257 -252
249 252 257
-258 -253
-258 -257
253 257 258
-259 -43
-259 44
43 -44 259
-260 43
-260 -44
-43 44 260
-261 -259
-261 -260
259 260 261
-262 43
-262 44
-43 -44 262
-263 258
-263 -261
-258 261 263
-264 -258
-264 261
258 -261 264
-265 -263
-265 -264
263 264 265
-266 -258
-266 -261
258 261 266
-267 -262
-267 -266
262 266 267
-268 -44
-268 45
44 -45 268
-269 44
-269 -45
-44 45 269
-270 -268
-270 -269
268 269 270
-271 44
-271 45
-44 -45 271
-272 267
-272 -270
-267 270 272
-273 -267
-273 270
267 -270 273
-274 -272
-274 -273
272 273 274
-275 -267
-275 -270
267 270 275
-276 -271
-276 -275
271 275 276
-277 -45
-277 46
45 -46 277
-278 45
-278 -46
-45 46 278
-279 -277
-279 -278
277 278 279
-280 45
-280 46
-45 -46 280
-281 276
-281 -279
-276 279 281
-282 -276
-282 279
276 -279 282
-283 -281
-283 -282
281 282 283
-284 -276
-284 -279
276 279 284
-285 -280
-285 -284
280 284 285
-286 -46
-286 47
46 -47 286
-287 46
-287 -47
-46 47 287
-288 -286
-288 -287
286 287 288
-289 46
-289 47
-46 -47 289
-290 285
-290 -288
-285 288 290
-291 -285
-291 288
285 -288 291
-292 -290
-292 -291
290 291 292
-293 -285
-293 -288
285 288 293
-294 -289
-294 -293
289 293 294
-295 -47
-295 48
47 -48 295
-296 47
-296 -48
-47 48 296
-297 -295
-297 -296
295 296 297
-298 47
-298 48
-47 -48 298
-299 294
-299 -297
-294 297 299
-300 -294
-300 297
294 -297 300
-301 -299
-301 -300
299 300 301
-302 -294
-302 -297
294 297 302
-303 -298
-303 -302
298 302 303
-304 -48
-304 49
48 -49 304
-305 48
-305 -49
-48 49 305
-306 -304
-306 -305
304 305 306
-307 48
-307 49
-48 -49 307
-308 303
-308 -306
-303 306 308
-309 -303
-309 306
303 -306 309
-310 -308
-310 -309
308 309 310
-311 -303
-311 -306
303 306 311
-312 -307
-312 -311
307 311 312
-313 -49
-313 50
49 -50 313
-314 49
-314 -50
-49 50 314
-315 -313
-315 -314
313 314 315
-316 49
-316 50
-49 -50 316
-317 312
-317 -315
-312 315 317
-318 -312
-318 315
312 -315 318
-319 -317
-319 -318
317 318 319
-320 -312
-320 -315
312 315 320
-321 -316
-321 -320
316 320 321
-322 -50
-322 51
50 -51 322
-323 50
-323 -51
-50 51 323
-324 -322
-324 -323
322 323 324
-325 50
-325 51
-50 -51 325
-326 321
-326 -324
-321 324 326
-327 -321
-327 324
321 -324 327
-328 -326
-328 -327
326 327 328
-329 -321
-329 -324
321 324 329
-330 -325
-330 -329
325 329 330
-331 23
-331 -85
-23 85 331
-332 -23
-332 25
23 -25 332
-333 -331
-333 -332
331 332 333
-334 23
-334 -94
-23 94 334
-335 -23
-335 26
23 -26 335
-336 -334
-336 -335
334 335 336
-337 23
-337 -103
-23 103 337
-338 -23
-338 27
23 -27 338
-339 -337
-339 -338
337 338 339
-340 23
-340 -112
-23 112 340
-341 -23
-341 28
23 -28 341
-342 -340
-342 -341
340 341 342
-343 23
-343 -121
-23 121 343
-344 -23
-344 29
23 -29 344
-345 -343
-345 -344
343 344 345
-346 23
-346 -130
-23 130 346
-347 -23
-347 30
23 -30 347
-348 -346
-348 -347
346 347 348
-349 23
-349 -139
-23 139 349
-350 -23
-350 31
23 -31 350
-351 -349
-351 -350
349 350 351
-352 23
-352 -148
-23 148 352
-353 -23
-353 32
23 -32 353
-354 -352
-354 -353
352 353 354
-355 23
-355 -157
-23 157 355
-356 -23
-356 33
23 -33 356
-357 -355
-357 -356
355 356 357
-358 23
-358 -166
-23 166 358
-359 -23
-359 34
23 -34 359
-360 -358
-360 -359
358 359 360
-361 23
-361 -175
-23 175 361
-362 -23
-362 35
23 -35 362
-363 -361
-363 -362
361 362 363
-364 23
-364 -184
-23 184 364
-365 -23
-365 36
23 -36 365
-366 -364
-366 -365
364 365 366
-367 23
-367 -193
-23 193 367
-368 -23
-368 37
23 -37 368
-369 -367
-369 -368
367 368 369
-370 23
-370 -202
-23 202 370
-371 -23
-371 38
23 -38 371
-372 -370
-372 -371
370 371 372
-373 23
-373 -211
-23 211 373
-374 -23
-374 39
23 -39 374
-375 -373
-375 -374
373 374 375
-376 23
-376 -220
-23 220 376
-377 -23
-377 40
23 -40 377
-378 -376
-378 -377
376 377 378
-379 23
-379 -229
-23 229 379
-380 -23
-380 41
23 -41 380
-381 -379
-381 -380
379 380 381
-382 23
-382 -238
-23 238 382
-383 -23
-383 42
23 -42 383
-384 -382
-384 -383
382 383 384
-385 23
-385 -247
-23 247 385
-386 -23
-386 43
23 -43 386
-387 -385
-387 -386
385 386 387
-388 23
-388 -256
-23 256 388
-389 -23
-389 44
23 -44 389
-390 -388
-390 -389
388 389 390
-391 23
-391 -265
-23 265 391
-392 -23
-392 45
23 -45 392
-393 -391
-393 -392
391 392 393
-394 23
-394 -274
-23 274 394
-395 -23
-395 46
23 -46 395
-396 -394
-396 -395
394 395 396
-397 23
-397 -283
-23 283 397
-398 -23
-398 47
23 -47 398
-399 -397
-399 -398
397 398 399
-400 23
-400 -292
-23 292 400
-401 -23
-401 48
23 -48 401
-402 -400
-402 -401
400 401 402
-403 23
-403 -301
-23 301 403
-404 -23
-404 49
23 -49 404
-405 -403
-405 -404
403 404 405
-406 23
-406 -310
-23 310 406
-407 -23
-407 50
23 -50 407
-408 -406
-408 -407
406 407 408
-409 23
-409 -319
-23 319 409
-410 -23
-410 51
23 -51 410
-411 -409
-411 -410
409 410 411
-412 23
-412 -328
-23 328 412
-413 1
-413 78
-1 -78 413
-414 -78
-414 79
78 -79 414
-415 -413
-415 -414
413 414 415
-416 2
-416 78
-2 -78 416
-417 -78
-417 -333
78 333 417
-418 -416
-418 -417
416 417 418
-419 3
-419 78
-3 -78 419
-420 -78
-420 -336
78 336 420
-421 -419
-421 -420
419 420 421
-422 4
-422 78
-4 -78 422
-423 -78
-423 -339
78 339 423
-424 -422
-424 -423
422 423 424
-425 5
-425 78
-5 -78 425
-426 -78
-426 -342
78 342 426
-427 -425
-427 -426
425 426 427
-428 6
-428 78
-6 -78 428
-429 -78
-429 -345
78 345 429
-430 -428
-430 -429
428 429 430
-431 7
-431 78
-7 -78 431
-432 -78
-432 -348
78 348 432
-433 -431
-433 -432
431 432 433
-434 8
-434 78
-8 -78 434
-435 -78
-435 -351
78 351 435
-436 -434
-436 -435
434 435 436
-437 9
-437 78
-9 -78 437
-438 -78
-438 -354
78 354 438
-439 -437
-439 -438
437 438 439
-440 10
-440 78
-10 -78 440
-441 -78
-441 -357
78 357 441
-442 -440
-442 -441
440 441 442
-443 11
-443 78
-11 -78 443
-444 -78
-444 -360
78 360 444
-445 -443
-445 -444
443 444 445
-446 12
-446 78
-12 -78 446
-447 -78
-447 -363
78 363 447
-448 -446
-448 -447
446 447 448
-449 13
-449 78
-13 -78 449
-450 -78
-450 -366
78 366 450
-451 -449
-451 -450
449 450 451
-452 14
-452 78
-14 -78 452
-453 -78
-453 -369
78 369 453
-454 -452
-454 -453
452 453 454
-455 15
-455 78
-15 -78 455
-456 -78
-456 -372
78 372 456
-457 -455
-457 -456
455 456 457
-458 16
-458 78
-16 -78 458
-459 -78
-459 -375
78 375 459
-460 -458
-460 -459
458 459 460
-461 17
-461 78
-17 -78 461
-462 -78
-462 -378
78 378 462
-463 -461
-463 -462
461 462 463
-464 18
-464 78
-18 -78 464
-465 -78
-465 -381
78 381 465
-466 -464
-466 -465
464 465 466
-467 19
-467 78
-19 -78 467
-468 -78
-468 -384
78 384 468
-469 -467
-469 -468
467 468 469
-470 20
-470 78
-20 -78 470
-471 -78
-471 -387
78 387 471
-472 -470
-472 -471
470 471 472
-473 21
-473 78
-21 -78 473
-474 -78
-474 -390
78 390 474
-475 -473
-475 -474
473 474 475
-476 22
-476 78
-22 -78 476
-477 -78
-477 -393
78 393 477
-478 -476
-478 -477
476 477 478
-479 -78
-479 -396
78 396 479
-480 -78
-480 -399
78 399 480
-481 -78
-481 -402
78 402 481
-482 -78
-482 -405
78 405 482
-483 -78
-483 -408
78 408 483
-484 -78
-484 -411
78 411 484
-485 -78
-485 412
78 -412 485
-486 -51
-486 330
51 -330 486
-487 23
-487 -486
-23 486 487
487
